2139,1991
3148,2388
8646,7808
9711,8722
892,-42
8825,9336
6446,6780
5823,6098
562,702
3202,2646
1461,1351
3620,4076
3205,3932
9736,9858
8418,8709
7631,7424
6742,6567
3662,3691
9831,9483
5990,6184
1971,2252
1843,1899
3418,3510
391,-568
8056,7205
871,196
1267,1990
2189,2888
6602,6059
782,-129
4330,4531
3813,3554
3711,2942
4104,3685
8178,7921
5833,5413
9417,9019
2207,2173
2873,2597
567,1061
2440,2609
5711,5236
4097,3755
2141,1515
6121,6052
2675,2635
8465,8056
5121,5069
230,595
9178,8409
8475,8911
7180,7126
699,328
1340,2308
366,1159
8691,8515
2397,3320
8056,8572
4463,4237
2427,1476
8715,8197
3255,3167
9697,10644
6917,7465
2508,1647
3636,4529
9341,9463
2802,1990
2262,1465
4679,4439
6858,7410
7551,6895
64,-728
5456,5266
2294,1374

11205
1180
13157
15760
21548
18161
2309
30991
13769
2566
